************************************************************************
file with basedata            : n/a
initial value random generator: n/a
************************************************************************
projects                      :  1
jobs (incl. supersource/sink ):  122
horizon                       :  692
RESOURCES
  - renewable                 :  4   R
  - nonrenewable              :  0   N
  - doubly constrained        :  0   D
************************************************************************
PROJECT INFORMATION:
pronr.  #jobs rel.date duedate tardcost  MPM-Time
    1    120      0       87       23       87
************************************************************************
PRECEDENCE RELATIONS:
jobnr.    #modes  #successors   successors
   1        1          3           2   3   4
   2        1          3           5  28  42
   3        1          3           6  13  32
   4        1          2          45  52
   5        1          2           7   8
   6        1          2          14  34
   7        1          3          11  46  56
   8        1          3           9  10  12
   9        1          2          25  32
  10        1          3          21  51 105
  11        1          1          94
  12        1          3          15  17  18
  13        1          3          16  23  78
  14        1          1          47
  15        1          3          57  74  82
  16        1          2          71  75
  17        1          2          19  30
  18        1          3          22  31  83
  19        1          2          20  29
  20        1          1          26
  21        1          3          24  27 121
  22        1          2          43  84
  23        1          1          87
  24        1          2          47  96
  25        1          3          40  48  99
  26        1          1          55
  27        1          1          66
  28        1          2          33  59
  29        1          3          41  49  53
  30        1          1          43
  31        1          3          35  39  55
  32        1          1          62
  33        1          1          68
  34        1          3          36  37  38
  35        1          1          40
  36        1          1          78
  37        1          2          96 101
  38        1          1          50
  39        1          1          44
  40        1          2          84  95
  41        1          3          54  71 110
  42        1          1          69
  43        1          3          64  80 113
  44        1          2         105 119
  45        1          1         117
  46        1          2          61 104
  47        1          1         119
  48        1          2          89 120
  49        1          2          91 102
  50        1          1          97
  51        1          1          98
  52        1          1          70
  53        1          3          63  81  88
  54        1          3          67  70  72
  55        1          2          60  90
  56        1          1          58
  57        1          1          84
  58        1          1          63
  59        1          1         109
  60        1          1          75
  61        1          1         108
  62        1          2          65 106
  63        1          1          79
  64        1          1         121
  65        1          1         108
  66        1          1          77
  67        1          1         119
  68        1          1          76
  69        1          2          72  99
  70        1          1         105
  71        1          2          73 103
  72        1          1          93
  73        1          1          91
  74        1          1          83
  75        1          1          85
  76        1          1          92
  77        1          2          86 100
  78        1          2          85  91
  79        1          1         106
  80        1          1         107
  81        1          1          87
  82        1          1          99
  83        1          1          92
  84        1          1          92
  85        1          1         112
  86        1          1         111
  87        1          1          96
  88        1          1         111
  89        1          1          93
  90        1          1         115
  91        1          1         109
  92        1          1         101
  93        1          1          94
  94        1          1         112
  95        1          2         104 113
  96        1          1         108
  97        1          1         118
  98        1          1         117
  99        1          1         101
 100        1          1         113
 101        1          1         107
 102        1          1         118
 103        1          1         106
 104        1          1         116
 105        1          1         107
 106        1          1         109
 107        1          1         112
 108        1          2         111 114
 109        1          1         115
 110        1          1         114
 111        1          1         115
 112        1          1         121
 113        1          1         117
 114        1          1         116
 115        1          1         116
 116        1          1         118
 117        1          1         120
 118        1          1         120
 119        1          1         122
 120        1          1         122
 121        1          1         122
 122        1          0        
************************************************************************
REQUESTS/DURATIONS:
jobnr. mode duration  R 1  R 2  R 3  R 4
------------------------------------------------------------------------
  1      1     0    
  2      1     7       2   2   2   2   2   2   1
                       8   8   8   8   8   8   4
                       0   0   0   0   0   0   0
                       0   0   0   0   0   0   0
  3      1     9       8   8   8   8   8   8   8   8   8
                       1   1   1   1   1   1   1   1   1
                       6   6   6   6   6   6   6   6   6
                       9   9   9   9   9   9   9   9   9
  4      1     7       6   6   6   6   6   6   3
                       1   1   1   1   1   1   1
                       0   0   0   0   0   0   0
                      10  10  10  10  10  10   5
  5      1     4       0   0   0   0
                       0   0   0   0
                       0   0   0   0
                       3   3   3   3
  6      1     2      10  10
                       0   0
                       6   6
                       9   9
  7      1     5       1   2   2   2   2
                       1   1   1   1   1
                       0   0   0   0   0
                       3   6   6   6   6
  8      1     9       0   0   0   0   0   0   0   0   0
                       4   4   2   4   4   2   4   4   4
                       8   8   4   8   8   4   8   8   8
                      10  10   5  10  10   5  10  10  10
  9      1     8       0   0   0   0   0   0   0   0
                      10  10  10  10  10  10   5  10
                       0   0   0   0   0   0   0   0
                       0   0   0   0   0   0   0   0
 10      1     3       4   7   4
                       0   0   0
                       0   0   0
                       0   0   0
 11      1     8       0   0   0   0   0   0   0   0
                       0   0   0   0   0   0   0   0
                       3   5   5   5   5   3   5   5
                       2   4   4   4   4   2   4   4
 12      1     1       5
                       8
                       0
                       0
 13      1     9       9   9   9   9   9   9   9   9   9
                      10  10  10  10  10  10  10  10  10
                       1   1   1   1   1   1   1   1   1
                       0   0   0   0   0   0   0   0   0
 14      1     4       0   0   0   0
                       0   0   0   0
                       6   3   6   6
                      10   5  10  10
 15      1     9      10  10  10  10  10  10  10  10  10
                       5   5   5   5   5   5   5   5   5
                       0   0   0   0   0   0   0   0   0
                       0   0   0   0   0   0   0   0   0
 16      1     8       4   4   4   4   4   4   4   4
                       1   1   1   1   1   1   1   1
                       6   6   6   6   6   6   6   6
                       1   1   1   1   1   1   1   1
 17      1     3       0   0   0
                       2   2   2
                       9   9   9
                       7   7   7
 18      1     4       0   0   0   0
                       2   2   2   2
                       0   0   0   0
                       0   0   0   0
 19      1     1       0
                       0
                       0
                       5
 20      1     8       0   0   0   0   0   0   0   0
                       6   6   6   6   6   6   6   6
                       0   0   0   0   0   0   0   0
                       4   4   4   4   4   4   4   4
 21      1    10       9   9   5   9   9   9   5   9   9   9
                       0   0   0   0   0   0   0   0   0   0
                       3   3   2   3   3   3   2   3   3   3
                       0   0   0   0   0   0   0   0   0   0
 22      1     2       7   7
                       0   0
                       9   9
                       0   0
 23      1     5       0   0   0   0   0
                       0   0   0   0   0
                       7   7   7   7   7
                       0   0   0   0   0
 24      1     7       0   0   0   0   0   0   0
                       0   0   0   0   0   0   0
                       5   5   3   5   5   5   5
                       0   0   0   0   0   0   0
 25      1     1       8
                       5
                       0
                       0
 26      1     7       0   0   0   0   0   0   0
                       4   4   4   4   4   4   4
                       2   2   2   2   2   2   2
                      10  10  10  10  10  10  10
 27      1     7       0   0   0   0   0   0   0
                       3   6   3   6   3   6   6
                       0   0   0   0   0   0   0
                       1   2   1   2   1   2   2
 28      1     3       0   0   0
                       0   0   0
                       4   4   4
                       9   9   9
 29      1     2       2   2
                       0   0
                       1   1
                       7   7
 30      1    10       0   0   0   0   0   0   0   0   0   0
                       0   0   0   0   0   0   0   0   0   0
                       0   0   0   0   0   0   0   0   0   0
                       6   6   6   6   6   6   6   6   6   6
 31      1     8       0   0   0   0   0   0   0   0
                       0   0   0   0   0   0   0   0
                       1   1   1   1   1   1   1   1
                       7   7   7   7   7   7   7   7
 32      1    10       8   8   8   8   8   8   8   4   8   8
                       8   8   8   8   8   8   8   4   8   8
                       7   7   7   7   7   7   7   4   7   7
                       0   0   0   0   0   0   0   0   0   0
 33      1     2      10  10
                       0   0
                       0   0
                       0   0
 34      1     4       5   5   5   5
                      10  10  10  10
                       5   5   5   5
                       0   0   0   0
 35      1     8       0   0   0   0   0   0   0   0
                      10  10  10  10  10  10  10  10
                       0   0   0   0   0   0   0   0
                       1   1   1   1   1   1   1   1
 36      1     5       9   9   9   9   9
                       3   3   3   3   3
                       0   0   0   0   0
                       5   5   5   5   5
 37      1    10       3   3   3   3   3   3   3   3   3   3
                       4   4   4   4   4   4   4   4   4   4
                       9   9   9   9   9   9   9   9   9   9
                       0   0   0   0   0   0   0   0   0   0
 38      1     5       1   1   1   1   1
                       9   9   9   9   9
                       0   0   0   0   0
                       0   0   0   0   0
 39      1     4      10   5  10   5
                       0   0   0   0
                       4   2   4   2
                       9   5   9   5
 40      1     2       0   0
                       0   0
                       3   3
                      10  10
 41      1     9       0   0   0   0   0   0   0   0   0
                       0   0   0   0   0   0   0   0   0
                       5   5   5   3   5   5   3   5   5
                       9   9   9   5   9   9   5   9   9
 42      1     3       4   2   4
                       0   0   0
                       0   0   0
                       0   0   0
 43      1     7       1   1   1   1   1   1   1
                       0   0   0   0   0   0   0
                       7   7   7   7   7   7   7
                       0   0   0   0   0   0   0
 44      1     9       9   9   9   9   9   9   9   5   9
                       6   6   6   6   6   6   6   3   6
                       7   7   7   7   7   7   7   4   7
                       0   0   0   0   0   0   0   0   0
 45      1     9       1   1   1   1   1   1   1   1   1
                       9   9   9   9   9   9   9   9   9
                       0   0   0   0   0   0   0   0   0
                       3   3   3   3   3   3   3   3   3
 46      1     5       0   0   0   0   0
                       3   3   3   3   3
                       0   0   0   0   0
                       9   9   9   9   9
 47      1    10       4   4   4   2   4   4   4   4   4   4
                       0   0   0   0   0   0   0   0   0   0
                       0   0   0   0   0   0   0   0   0   0
                       0   0   0   0   0   0   0   0   0   0
 48      1     8       2   2   2   2   2   2   1   2
                       0   0   0   0   0   0   0   0
                       0   0   0   0   0   0   0   0
                       0   0   0   0   0   0   0   0
 49      1     8       1   1   1   1   1   1   1   1
                       8   8   8   8   8   4   8   8
                       2   2   2   2   2   1   2   2
                       0   0   0   0   0   0   0   0
 50      1     3       0   0   0
                       7   7   7
                       8   8   8
                       1   1   1
 51      1     9       6   3   6   6   6   6   6   6   6
                       0   0   0   0   0   0   0   0   0
                       0   0   0   0   0   0   0   0   0
                       2   1   2   2   2   2   2   2   2
 52      1     7       0   0   0   0   0   0   0
                       6   6   6   6   6   6   6
                       9   9   9   9   9   9   9
                       0   0   0   0   0   0   0
 53      1     7       0   0   0   0   0   0   0
                       8   8   4   8   8   8   8
                       0   0   0   0   0   0   0
                       3   3   2   3   3   3   3
 54      1     6       9   9   9   5   9   9
                      10  10  10   5  10  10
                       0   0   0   0   0   0
                      10  10  10   5  10  10
 55      1     1       0
                       4
                       9
                       4
 56      1     4      10  10  10  10
                       0   0   0   0
                       0   0   0   0
                       0   0   0   0
 57      1    10       9   5   9   9   9   9   9   5   9   9
                       8   4   8   8   8   8   8   4   8   8
                       7   4   7   7   7   7   7   4   7   7
                       0   0   0   0   0   0   0   0   0   0
 58      1    10       2   1   2   2   1   2   2   2   2   2
                       0   0   0   0   0   0   0   0   0   0
                       0   0   0   0   0   0   0   0   0   0
                       9   5   9   9   5   9   9   9   9   9
 59      1     4       0   0   0   0
                       2   2   2   2
                       0   0   0   0
                       7   7   7   7
 60      1     3      10  10  10
                       5   5   5
                       0   0   0
                       0   0   0
 61      1     4       0   0   0   0
                       1   2   2   2
                       2   3   3   3
                       0   0   0   0
 62      1     7       6   3   6   3   6   6   6
                       0   0   0   0   0   0   0
                       0   0   0   0   0   0   0
                       0   0   0   0   0   0   0
 63      1     5       1   1   1   1   1
                       0   0   0   0   0
                       9   9   9   9   9
                       0   0   0   0   0
 64      1     3       0   0   0
                       6   6   6
                       0   0   0
                       2   2   2
 65      1     4       9   9   5   9
                       0   0   0   0
                       0   0   0   0
                       0   0   0   0
 66      1     9       0   0   0   0   0   0   0   0   0
                       7   7   7   7   7   7   7   7   7
                       3   3   3   3   3   3   3   3   3
                       7   7   7   7   7   7   7   7   7
 67      1     5       0   0   0   0   0
                       0   0   0   0   0
                       0   0   0   0   0
                       2   2   2   2   2
 68      1     1       6
                       0
                      10
                       0
 69      1     9       0   0   0   0   0   0   0   0   0
                       6   6   6   6   6   6   6   6   6
                      10  10  10  10  10  10  10  10  10
                       0   0   0   0   0   0   0   0   0
 70      1     8       0   0   0   0   0   0   0   0
                       0   0   0   0   0   0   0   0
                      10  10   5  10  10  10   5  10
                       0   0   0   0   0   0   0   0
 71      1     5       5   9   9   9   9
                       3   5   5   5   5
                       0   0   0   0   0
                       2   4   4   4   4
 72      1     5       7   7   7   7   7
                       0   0   0   0   0
                       0   0   0   0   0
                       0   0   0   0   0
 73      1    10       0   0   0   0   0   0   0   0   0   0
                       0   0   0   0   0   0   0   0   0   0
                       7   7   7   7   7   7   7   4   7   7
                       0   0   0   0   0   0   0   0   0   0
 74      1    10       4   4   4   4   4   4   4   2   4   4
                       0   0   0   0   0   0   0   0   0   0
                       0   0   0   0   0   0   0   0   0   0
                       7   7   7   7   7   7   7   4   7   7
 75      1     4       0   0   0   0
                       2   2   2   2
                       0   0   0   0
                       0   0   0   0
 76      1     5       0   0   0   0   0
                       0   0   0   0   0
                       0   0   0   0   0
                       2   2   2   2   2
 77      1     7       0   0   0   0   0   0   0
                       0   0   0   0   0   0   0
                       0   0   0   0   0   0   0
                      10  10  10  10  10  10  10
 78      1     8       0   0   0   0   0   0   0   0
                       0   0   0   0   0   0   0   0
                       9   9   9   9   9   9   9   9
                       4   4   4   4   4   4   4   4
 79      1     7       5   5   5   5   5   5   5
                       1   1   1   1   1   1   1
                       1   1   1   1   1   1   1
                       3   3   3   3   3   3   3
 80      1    10      10  10   5  10  10  10  10  10  10  10
                       0   0   0   0   0   0   0   0   0   0
                       0   0   0   0   0   0   0   0   0   0
                       5   5   3   5   5   5   5   5   5   5
 81      1     8       9   9   9   9   9   9   9   9
                       4   4   4   4   4   4   4   4
                       5   5   5   5   5   5   5   5
                       0   0   0   0   0   0   0   0
 82      1    10       0   0   0   0   0   0   0   0   0   0
                       0   0   0   0   0   0   0   0   0   0
                       0   0   0   0   0   0   0   0   0   0
                       8   8   8   8   8   8   8   8   8   8
 83      1     4       8   8   8   8
                       0   0   0   0
                       1   1   1   1
                       0   0   0   0
 84      1     9       0   0   0   0   0   0   0   0   0
                       6   6   6   6   3   6   3   6   6
                      10  10  10  10   5  10   5  10  10
                      10  10  10  10   5  10   5  10  10
 85      1     8       7   7   7   7   7   7   4   7
                      10  10  10  10  10  10   5  10
                       3   3   3   3   3   3   2   3
                       0   0   0   0   0   0   0   0
 86      1     5       1   1   1   1   1
                       0   0   0   0   0
                       0   0   0   0   0
                       5   5   5   5   5
 87      1     7       0   0   0   0   0   0   0
                       9   9   9   9   9   9   9
                       6   6   6   6   6   6   6
                       7   7   7   7   7   7   7
 88      1     4       5   3   5   5
                       9   5   9   9
                       0   0   0   0
                       0   0   0   0
 89      1     1       8
                       0
                       7
                       4
 90      1     6       0   0   0   0   0   0
                       5   5   5   5   5   5
                       5   5   5   5   5   5
                       0   0   0   0   0   0
 91      1     7       0   0   0   0   0   0   0
                       0   0   0   0   0   0   0
                       6   6   3   6   6   6   6
                       0   0   0   0   0   0   0
 92      1     7       0   0   0   0   0   0   0
                       0   0   0   0   0   0   0
                       0   0   0   0   0   0   0
                       2   2   2   2   2   1   1
 93      1     5       0   0   0   0   0
                       0   0   0   0   0
                       6   6   6   6   6
                       9   9   9   9   9
 94      1     5       0   0   0   0   0
                       0   0   0   0   0
                       0   0   0   0   0
                       8   4   8   8   8
 95      1     1       2
                       0
                       0
                       9
 96      1     4       0   0   0   0
                       0   0   0   0
                       2   2   2   2
                       0   0   0   0
 97      1     9       2   2   1   2   2   2   2   2   2
                       0   0   0   0   0   0   0   0   0
                       0   0   0   0   0   0   0   0   0
                       0   0   0   0   0   0   0   0   0
 98      1     8       7   7   4   7   7   7   7   7
                       0   0   0   0   0   0   0   0
                       0   0   0   0   0   0   0   0
                       0   0   0   0   0   0   0   0
 99      1     3       0   0   0
                       0   0   0
                       5   5   5
                       0   0   0
100      1     4       3   6   6   6
                       3   6   6   6
                       3   6   6   6
                       0   0   0   0
101      1     1       9
                       4
                       4
                       6
102      1     9       0   0   0   0   0   0   0   0   0
                       0   0   0   0   0   0   0   0   0
                       5   5   5   5   5   5   5   5   5
                      10  10  10  10  10  10  10  10  10
103      1     3       0   0   0
                       0   0   0
                       1   1   1
                       3   5   5
104      1     5       0   0   0   0   0
                      10  10  10  10  10
                       0   0   0   0   0
                       0   0   0   0   0
105      1     4       9   9   9   9
                       0   0   0   0
                       3   3   3   3
                       0   0   0   0
106      1     6       0   0   0   0   0   0
                       0   0   0   0   0   0
                       0   0   0   0   0   0
                       7   7   7   7   7   7
107      1     4       0   0   0   0
                       7   4   7   7
                       0   0   0   0
                       0   0   0   0
108      1     5       0   0   0   0   0
                       9   9   9   9   5
                       0   0   0   0   0
                       5   5   5   5   3
109      1     1       0
                       0
                       0
                       5
110      1     6       0   0   0   0   0   0
                       0   0   0   0   0   0
                       2   2   1   2   2   2
                       6   6   3   6   6   6
111      1     1       0
                       0
                       1
                       0
112      1     9       2   2   2   1   2   2   2   1   2
                       0   0   0   0   0   0   0   0   0
                       7   7   7   4   7   7   7   4   7
                       3   3   3   2   3   3   3   2   3
113      1     2       0   0
                       9   9
                       0   0
                       0   0
114      1     1       0
                       2
                       2
                      10
115      1    10       6   6   6   6   6   6   6   6   6   6
                       2   2   2   2   2   2   2   2   2   2
                       5   5   5   5   5   5   5   5   5   5
                       0   0   0   0   0   0   0   0   0   0
116      1     7       0   0   0   0   0   0   0
                       1   1   1   1   1   1   1
                       0   0   0   0   0   0   0
                       0   0   0   0   0   0   0
117      1     3       0   0   0
                       1   1   1
                       0   0   0
                       2   2   2
118      1     6      10  10   5  10  10  10
                       0   0   0   0   0   0
                       0   0   0   0   0   0
                       2   2   1   2   2   2
119      1     5       0   0   0   0   0
                      10  10  10   5  10
                       0   0   0   0   0
                       7   7   7   4   7
120      1     2       0   0
                       0   0
                       0   0
                       1   1
121      1     8       0   0   0   0   0   0   0   0
                       3   3   3   3   3   3   3   3
                       0   0   0   0   0   0   0   0
                       9   9   9   9   9   9   9   9
122      1     0    
************************************************************************
RESOURCEAVAILABILITIES:
  R 1  R 2  R 3  R 4

  17   9  17  17  17  17  17  17  17  17  17  17  17  17  17  17  17  17  17   9  17  17  17  17  17  17  17  17  17  17  17  17  17  17  17  17  17  17   9  17  17  17  17  17  17  17  17  17  17   9  17  17  17  17  17  17   9  17  17   9  17  17   9  17  17  17  17  17  17  17   9  17  17  17  17  17  17  17  17  17  17  17   9  17  17  17  17  17  17   9  17  17   9  17  17  17  17  17  17  17  17  17  17  17  17  17  17  17  17  17  17  17   9  17  17  17  17  17  17   9  17  17  17  17  17  17  17  17  17  17  17  17  17  17  17  17  17   9  17  17  17  17  17  17  17   9  17  17  17  17  17  17   9  17  17  17  17  17  17  17  17  17  17  17  17  17  17  17  17  17   9  17  17  17  17   9  17  17  17  17  17  17  17  17   9   9  17  17  17  17  17  17  17  17  17  17  17  17  17  17  17  17  17  17  17  17  17  17  17  17  17  17  17  17  17  17  17  17  17  17  17  17  17  17  17   9  17  17  17  17  17  17   9  17   9   9  17  17  17  17   9  17  17  17  17  17  17  17  17  17  17  17  17  17  17  17  17   9  17  17  17  17  17  17  17  17  17   9  17  17   9  17  17  17  17  17  17  17  17  17  17  17  17  17  17  17  17  17  17  17  17  17  17  17  17  17  17  17   9   9  17  17  17   9   9   9  17  17  17  17   9  17  17  17  17  17  17  17  17  17  17  17  17  17  17  17  17  17  17  17  17  17  17   9  17  17  17  17  17  17  17  17  17  17  17  17  17  17  17   9  17  17  17  17  17  17  17  17   9  17  17   9  17  17  17  17  17  17  17   9  17  17  17  17  17  17  17  17  17   9  17  17  17  17  17  17  17  17  17  17  17  17  17  17  17  17  17  17  17  17  17   9  17  17  17  17  17  17  17  17  17  17  17   9  17  17  17  17  17  17  17  17  17  17  17  17  17  17   9  17  17  17  17  17  17  17  17  17  17  17  17  17   9  17  17  17  17  17  17   9  17  17  17  17  17  17  17  17   9  17  17   9  17  17  17  17  17  17  17  17   9  17  17  17   9  17   9  17   9  17   9  17  17  17  17  17   9  17   9  17  17  17  17  17  17  17  17  17  17  17  17  17  17  17  17  17  17  17  17  17  17   9  17   9  17  17  17  17  17  17  17  17  17   9  17  17  17  17  17  17  17  17  17  17  17  17  17  17  17  17  17  17  17   9  17  17  17  17  17  17  17  17  17  17  17   9  17   9  17  17  17  17  17   9  17   9  17  17  17  17  17  17  17  17  17  17   9  17  17  17  17  17  17  17  17  17  17   9  17  17  17  17   9  17  17  17  17  17  17  17  17  17   9   9  17  17  17   9  17  17  17  17  17  17   9  17   9  17  17  17  17  17  17  17  17   9  17  17  17  17  17  17  17  17  17  17  17  17  17  17  17  17  17   9   9  17  17  17  17  17  17  17  17  17   9   9  17  17  17  17  17  17  17  17  17  17   9  17  17  17  17  17  17  17  17  17  17  17  17  17  17   9  17  17  17  17  17  17  17   9  17  17

  16   8  16  16  16  16  16  16  16  16  16  16  16  16  16  16  16  16  16   8  16  16  16  16  16  16  16  16  16  16  16  16  16  16  16  16  16  16   8  16  16  16  16  16  16  16  16  16  16   8  16  16  16  16  16  16   8  16  16   8  16  16   8  16  16  16  16  16  16  16   8  16  16  16  16  16  16  16  16  16  16  16   8  16  16  16  16  16  16   8  16  16   8  16  16  16  16  16  16  16  16  16  16  16  16  16  16  16  16  16  16  16   8  16  16  16  16  16  16   8  16  16  16  16  16  16  16  16  16  16  16  16  16  16  16  16  16   8  16  16  16  16  16  16  16   8  16  16  16  16  16  16   8  16  16  16  16  16  16  16  16  16  16  16  16  16  16  16  16  16   8  16  16  16  16   8  16  16  16  16  16  16  16  16   8   8  16  16  16  16  16  16  16  16  16  16  16  16  16  16  16  16  16  16  16  16  16  16  16  16  16  16  16  16  16  16  16  16  16  16  16  16  16  16  16   8  16  16  16  16  16  16   8  16   8   8  16  16  16  16   8  16  16  16  16  16  16  16  16  16  16  16  16  16  16  16  16   8  16  16  16  16  16  16  16  16  16   8  16  16   8  16  16  16  16  16  16  16  16  16  16  16  16  16  16  16  16  16  16  16  16  16  16  16  16  16  16  16   8   8  16  16  16   8   8   8  16  16  16  16   8  16  16  16  16  16  16  16  16  16  16  16  16  16  16  16  16  16  16  16  16  16  16   8  16  16  16  16  16  16  16  16  16  16  16  16  16  16  16   8  16  16  16  16  16  16  16  16   8  16  16   8  16  16  16  16  16  16  16   8  16  16  16  16  16  16  16  16  16   8  16  16  16  16  16  16  16  16  16  16  16  16  16  16  16  16  16  16  16  16  16   8  16  16  16  16  16  16  16  16  16  16  16   8  16  16  16  16  16  16  16  16  16  16  16  16  16  16   8  16  16  16  16  16  16  16  16  16  16  16  16  16   8  16  16  16  16  16  16   8  16  16  16  16  16  16  16  16   8  16  16   8  16  16  16  16  16  16  16  16   8  16  16  16   8  16   8  16   8  16   8  16  16  16  16  16   8  16   8  16  16  16  16  16  16  16  16  16  16  16  16  16  16  16  16  16  16  16  16  16  16   8  16   8  16  16  16  16  16  16  16  16  16   8  16  16  16  16  16  16  16  16  16  16  16  16  16  16  16  16  16  16  16   8  16  16  16  16  16  16  16  16  16  16  16   8  16   8  16  16  16  16  16   8  16   8  16  16  16  16  16  16  16  16  16  16   8  16  16  16  16  16  16  16  16  16  16   8  16  16  16  16   8  16  16  16  16  16  16  16  16  16   8   8  16  16  16   8  16  16  16  16  16  16   8  16   8  16  16  16  16  16  16  16  16   8  16  16  16  16  16  16  16  16  16  16  16  16  16  16  16  16  16   8   8  16  16  16  16  16  16  16  16  16   8   8  16  16  16  16  16  16  16  16  16  16   8  16  16  16  16  16  16  16  16  16  16  16  16  16  16   8  16  16  16  16  16  16  16   8  16  16

  15   8  15  15  15  15  15  15  15  15  15  15  15  15  15  15  15  15  15   8  15  15  15  15  15  15  15  15  15  15  15  15  15  15  15  15  15  15   8  15  15  15  15  15  15  15  15  15  15   8  15  15  15  15  15  15   8  15  15   8  15  15   8  15  15  15  15  15  15  15   8  15  15  15  15  15  15  15  15  15  15  15   8  15  15  15  15  15  15   8  15  15   8  15  15  15  15  15  15  15  15  15  15  15  15  15  15  15  15  15  15  15   8  15  15  15  15  15  15   8  15  15  15  15  15  15  15  15  15  15  15  15  15  15  15  15  15   8  15  15  15  15  15  15  15   8  15  15  15  15  15  15   8  15  15  15  15  15  15  15  15  15  15  15  15  15  15  15  15  15   8  15  15  15  15   8  15  15  15  15  15  15  15  15   8   8  15  15  15  15  15  15  15  15  15  15  15  15  15  15  15  15  15  15  15  15  15  15  15  15  15  15  15  15  15  15  15  15  15  15  15  15  15  15  15   8  15  15  15  15  15  15   8  15   8   8  15  15  15  15   8  15  15  15  15  15  15  15  15  15  15  15  15  15  15  15  15   8  15  15  15  15  15  15  15  15  15   8  15  15   8  15  15  15  15  15  15  15  15  15  15  15  15  15  15  15  15  15  15  15  15  15  15  15  15  15  15  15   8   8  15  15  15   8   8   8  15  15  15  15   8  15  15  15  15  15  15  15  15  15  15  15  15  15  15  15  15  15  15  15  15  15  15   8  15  15  15  15  15  15  15  15  15  15  15  15  15  15  15   8  15  15  15  15  15  15  15  15   8  15  15   8  15  15  15  15  15  15  15   8  15  15  15  15  15  15  15  15  15   8  15  15  15  15  15  15  15  15  15  15  15  15  15  15  15  15  15  15  15  15  15   8  15  15  15  15  15  15  15  15  15  15  15   8  15  15  15  15  15  15  15  15  15  15  15  15  15  15   8  15  15  15  15  15  15  15  15  15  15  15  15  15   8  15  15  15  15  15  15   8  15  15  15  15  15  15  15  15   8  15  15   8  15  15  15  15  15  15  15  15   8  15  15  15   8  15   8  15   8  15   8  15  15  15  15  15   8  15   8  15  15  15  15  15  15  15  15  15  15  15  15  15  15  15  15  15  15  15  15  15  15   8  15   8  15  15  15  15  15  15  15  15  15   8  15  15  15  15  15  15  15  15  15  15  15  15  15  15  15  15  15  15  15   8  15  15  15  15  15  15  15  15  15  15  15   8  15   8  15  15  15  15  15   8  15   8  15  15  15  15  15  15  15  15  15  15   8  15  15  15  15  15  15  15  15  15  15   8  15  15  15  15   8  15  15  15  15  15  15  15  15  15   8   8  15  15  15   8  15  15  15  15  15  15   8  15   8  15  15  15  15  15  15  15  15   8  15  15  15  15  15  15  15  15  15  15  15  15  15  15  15  15  15   8   8  15  15  15  15  15  15  15  15  15   8   8  15  15  15  15  15  15  15  15  15  15   8  15  15  15  15  15  15  15  15  15  15  15  15  15  15   8  15  15  15  15  15  15  15   8  15  15

  16   8  16  16  16  16  16  16  16  16  16  16  16  16  16  16  16  16  16   8  16  16  16  16  16  16  16  16  16  16  16  16  16  16  16  16  16  16   8  16  16  16  16  16  16  16  16  16  16   8  16  16  16  16  16  16   8  16  16   8  16  16   8  16  16  16  16  16  16  16   8  16  16  16  16  16  16  16  16  16  16  16   8  16  16  16  16  16  16   8  16  16   8  16  16  16  16  16  16  16  16  16  16  16  16  16  16  16  16  16  16  16   8  16  16  16  16  16  16   8  16  16  16  16  16  16  16  16  16  16  16  16  16  16  16  16  16   8  16  16  16  16  16  16  16   8  16  16  16  16  16  16   8  16  16  16  16  16  16  16  16  16  16  16  16  16  16  16  16  16   8  16  16  16  16   8  16  16  16  16  16  16  16  16   8   8  16  16  16  16  16  16  16  16  16  16  16  16  16  16  16  16  16  16  16  16  16  16  16  16  16  16  16  16  16  16  16  16  16  16  16  16  16  16  16   8  16  16  16  16  16  16   8  16   8   8  16  16  16  16   8  16  16  16  16  16  16  16  16  16  16  16  16  16  16  16  16   8  16  16  16  16  16  16  16  16  16   8  16  16   8  16  16  16  16  16  16  16  16  16  16  16  16  16  16  16  16  16  16  16  16  16  16  16  16  16  16  16   8   8  16  16  16   8   8   8  16  16  16  16   8  16  16  16  16  16  16  16  16  16  16  16  16  16  16  16  16  16  16  16  16  16  16   8  16  16  16  16  16  16  16  16  16  16  16  16  16  16  16   8  16  16  16  16  16  16  16  16   8  16  16   8  16  16  16  16  16  16  16   8  16  16  16  16  16  16  16  16  16   8  16  16  16  16  16  16  16  16  16  16  16  16  16  16  16  16  16  16  16  16  16   8  16  16  16  16  16  16  16  16  16  16  16   8  16  16  16  16  16  16  16  16  16  16  16  16  16  16   8  16  16  16  16  16  16  16  16  16  16  16  16  16   8  16  16  16  16  16  16   8  16  16  16  16  16  16  16  16   8  16  16   8  16  16  16  16  16  16  16  16   8  16  16  16   8  16   8  16   8  16   8  16  16  16  16  16   8  16   8  16  16  16  16  16  16  16  16  16  16  16  16  16  16  16  16  16  16  16  16  16  16   8  16   8  16  16  16  16  16  16  16  16  16   8  16  16  16  16  16  16  16  16  16  16  16  16  16  16  16  16  16  16  16   8  16  16  16  16  16  16  16  16  16  16  16   8  16   8  16  16  16  16  16   8  16   8  16  16  16  16  16  16  16  16  16  16   8  16  16  16  16  16  16  16  16  16  16   8  16  16  16  16   8  16  16  16  16  16  16  16  16  16   8   8  16  16  16   8  16  16  16  16  16  16   8  16   8  16  16  16  16  16  16  16  16   8  16  16  16  16  16  16  16  16  16  16  16  16  16  16  16  16  16   8   8  16  16  16  16  16  16  16  16  16   8   8  16  16  16  16  16  16  16  16  16  16   8  16  16  16  16  16  16  16  16  16  16  16  16  16  16   8  16  16  16  16  16  16  16   8  16  16

************************************************************************
